nr = 8;
stageF=false;
ns = 24;
nsh = 24;
size = [2,2,1,4,3,2,5,1,2,3,5,4,2,2,1,4,3,2,5,1,2,3,5,4];
ship = [1,2,3,4,5,6,7,8,9,10,11,12,13,14,15,16,17,18,19,20,21,22,23,24];
stack_time = 4;
reclaim_time = 3;
reclaim_speed = 1;
maxtime = 300;
arrival = [ 0, 10, 20, 40, 150, 20, 30, 0, 15, 120, 25, 30, 0, 10, 20, 40, 150, 20, 30, 0, 15, 120, 25, 30 ];
len = 20;
